(declare-const X String)
; /^dataget\x7c\d+\x7c\d+\x7C[a-z0-9]+\x2E[a-z]{2,3}\x7C[a-z0-9]+\x7C/
(assert (not (str.in_re X (re.++ (str.to_re "/dataget|") (re.+ (re.range "0" "9")) (str.to_re "|") (re.+ (re.range "0" "9")) (str.to_re "|") (re.+ (re.union (re.range "a" "z") (re.range "0" "9"))) (str.to_re ".") ((_ re.loop 2 3) (re.range "a" "z")) (str.to_re "|") (re.+ (re.union (re.range "a" "z") (re.range "0" "9"))) (str.to_re "|/\u{a}")))))
; ^\d*\.?\d*$
(assert (not (str.in_re X (re.++ (re.* (re.range "0" "9")) (re.opt (str.to_re ".")) (re.* (re.range "0" "9")) (str.to_re "\u{a}")))))
; Travel.*www\x2Etopadwarereviews\x2Ecom\s+v2\x2E0www\.raxsearch\.com
(assert (str.in_re X (re.++ (str.to_re "Travel") (re.* re.allchar) (str.to_re "www.topadwarereviews.com") (re.+ (re.union (str.to_re " ") (str.to_re "\u{9}") (str.to_re "\u{a}") (str.to_re "\u{c}") (str.to_re "\u{d}"))) (str.to_re "v2.0www.raxsearch.com\u{a}"))))
(check-sat)

(exit)
